p cnf 456 768
47 48 1 73 74 0
47 48 1 73 -74 0
47 48 1 -73 74 0
47 48 1 -73 -74 0
-47 -48 1 75 76 0
-47 -48 1 75 -76 0
-47 -48 1 -75 76 0
-47 -48 1 -75 -76 0
47 -48 -1 77 78 0
47 -48 -1 77 -78 0
47 -48 -1 -77 78 0
47 -48 -1 -77 -78 0
-47 48 -1 79 80 0
-47 48 -1 79 -80 0
-47 48 -1 -79 80 0
-47 48 -1 -79 -80 0
1 49 2 81 82 0
1 49 2 81 -82 0
1 49 2 -81 82 0
1 49 2 -81 -82 0
-1 -49 2 83 84 0
-1 -49 2 83 -84 0
-1 -49 2 -83 84 0
-1 -49 2 -83 -84 0
1 -49 -2 85 86 0
1 -49 -2 85 -86 0
1 -49 -2 -85 86 0
1 -49 -2 -85 -86 0
-1 49 -2 87 88 0
-1 49 -2 87 -88 0
-1 49 -2 -87 88 0
-1 49 -2 -87 -88 0
2 50 3 89 90 0
2 50 3 89 -90 0
2 50 3 -89 90 0
2 50 3 -89 -90 0
-2 -50 3 91 92 0
-2 -50 3 91 -92 0
-2 -50 3 -91 92 0
-2 -50 3 -91 -92 0
2 -50 -3 93 94 0
2 -50 -3 93 -94 0
2 -50 -3 -93 94 0
2 -50 -3 -93 -94 0
-2 50 -3 95 96 0
-2 50 -3 95 -96 0
-2 50 -3 -95 96 0
-2 50 -3 -95 -96 0
3 51 4 97 98 0
3 51 4 97 -98 0
3 51 4 -97 98 0
3 51 4 -97 -98 0
-3 -51 4 99 100 0
-3 -51 4 99 -100 0
-3 -51 4 -99 100 0
-3 -51 4 -99 -100 0
3 -51 -4 101 102 0
3 -51 -4 101 -102 0
3 -51 -4 -101 102 0
3 -51 -4 -101 -102 0
-3 51 -4 103 104 0
-3 51 -4 103 -104 0
-3 51 -4 -103 104 0
-3 51 -4 -103 -104 0
4 52 5 105 106 0
4 52 5 105 -106 0
4 52 5 -105 106 0
4 52 5 -105 -106 0
-4 -52 5 107 108 0
-4 -52 5 107 -108 0
-4 -52 5 -107 108 0
-4 -52 5 -107 -108 0
4 -52 -5 109 110 0
4 -52 -5 109 -110 0
4 -52 -5 -109 110 0
4 -52 -5 -109 -110 0
-4 52 -5 111 112 0
-4 52 -5 111 -112 0
-4 52 -5 -111 112 0
-4 52 -5 -111 -112 0
5 53 6 113 114 0
5 53 6 113 -114 0
5 53 6 -113 114 0
5 53 6 -113 -114 0
-5 -53 6 115 116 0
-5 -53 6 115 -116 0
-5 -53 6 -115 116 0
-5 -53 6 -115 -116 0
5 -53 -6 117 118 0
5 -53 -6 117 -118 0
5 -53 -6 -117 118 0
5 -53 -6 -117 -118 0
-5 53 -6 119 120 0
-5 53 -6 119 -120 0
-5 53 -6 -119 120 0
-5 53 -6 -119 -120 0
6 54 7 121 122 0
6 54 7 121 -122 0
6 54 7 -121 122 0
6 54 7 -121 -122 0
-6 -54 7 123 124 0
-6 -54 7 123 -124 0
-6 -54 7 -123 124 0
-6 -54 7 -123 -124 0
6 -54 -7 125 126 0
6 -54 -7 125 -126 0
6 -54 -7 -125 126 0
6 -54 -7 -125 -126 0
-6 54 -7 127 128 0
-6 54 -7 127 -128 0
-6 54 -7 -127 128 0
-6 54 -7 -127 -128 0
7 55 8 129 130 0
7 55 8 129 -130 0
7 55 8 -129 130 0
7 55 8 -129 -130 0
-7 -55 8 131 132 0
-7 -55 8 131 -132 0
-7 -55 8 -131 132 0
-7 -55 8 -131 -132 0
7 -55 -8 133 134 0
7 -55 -8 133 -134 0
7 -55 -8 -133 134 0
7 -55 -8 -133 -134 0
-7 55 -8 135 136 0
-7 55 -8 135 -136 0
-7 55 -8 -135 136 0
-7 55 -8 -135 -136 0
8 56 9 137 138 0
8 56 9 137 -138 0
8 56 9 -137 138 0
8 56 9 -137 -138 0
-8 -56 9 139 140 0
-8 -56 9 139 -140 0
-8 -56 9 -139 140 0
-8 -56 9 -139 -140 0
8 -56 -9 141 142 0
8 -56 -9 141 -142 0
8 -56 -9 -141 142 0
8 -56 -9 -141 -142 0
-8 56 -9 143 144 0
-8 56 -9 143 -144 0
-8 56 -9 -143 144 0
-8 56 -9 -143 -144 0
9 57 10 145 146 0
9 57 10 145 -146 0
9 57 10 -145 146 0
9 57 10 -145 -146 0
-9 -57 10 147 148 0
-9 -57 10 147 -148 0
-9 -57 10 -147 148 0
-9 -57 10 -147 -148 0
9 -57 -10 149 150 0
9 -57 -10 149 -150 0
9 -57 -10 -149 150 0
9 -57 -10 -149 -150 0
-9 57 -10 151 152 0
-9 57 -10 151 -152 0
-9 57 -10 -151 152 0
-9 57 -10 -151 -152 0
10 58 11 153 154 0
10 58 11 153 -154 0
10 58 11 -153 154 0
10 58 11 -153 -154 0
-10 -58 11 155 156 0
-10 -58 11 155 -156 0
-10 -58 11 -155 156 0
-10 -58 11 -155 -156 0
10 -58 -11 157 158 0
10 -58 -11 157 -158 0
10 -58 -11 -157 158 0
10 -58 -11 -157 -158 0
-10 58 -11 159 160 0
-10 58 -11 159 -160 0
-10 58 -11 -159 160 0
-10 58 -11 -159 -160 0
11 59 12 161 162 0
11 59 12 161 -162 0
11 59 12 -161 162 0
11 59 12 -161 -162 0
-11 -59 12 163 164 0
-11 -59 12 163 -164 0
-11 -59 12 -163 164 0
-11 -59 12 -163 -164 0
11 -59 -12 165 166 0
11 -59 -12 165 -166 0
11 -59 -12 -165 166 0
11 -59 -12 -165 -166 0
-11 59 -12 167 168 0
-11 59 -12 167 -168 0
-11 59 -12 -167 168 0
-11 59 -12 -167 -168 0
12 60 13 169 170 0
12 60 13 169 -170 0
12 60 13 -169 170 0
12 60 13 -169 -170 0
-12 -60 13 171 172 0
-12 -60 13 171 -172 0
-12 -60 13 -171 172 0
-12 -60 13 -171 -172 0
12 -60 -13 173 174 0
12 -60 -13 173 -174 0
12 -60 -13 -173 174 0
12 -60 -13 -173 -174 0
-12 60 -13 175 176 0
-12 60 -13 175 -176 0
-12 60 -13 -175 176 0
-12 60 -13 -175 -176 0
13 61 14 177 178 0
13 61 14 177 -178 0
13 61 14 -177 178 0
13 61 14 -177 -178 0
-13 -61 14 179 180 0
-13 -61 14 179 -180 0
-13 -61 14 -179 180 0
-13 -61 14 -179 -180 0
13 -61 -14 181 182 0
13 -61 -14 181 -182 0
13 -61 -14 -181 182 0
13 -61 -14 -181 -182 0
-13 61 -14 183 184 0
-13 61 -14 183 -184 0
-13 61 -14 -183 184 0
-13 61 -14 -183 -184 0
14 62 15 185 186 0
14 62 15 185 -186 0
14 62 15 -185 186 0
14 62 15 -185 -186 0
-14 -62 15 187 188 0
-14 -62 15 187 -188 0
-14 -62 15 -187 188 0
-14 -62 15 -187 -188 0
14 -62 -15 189 190 0
14 -62 -15 189 -190 0
14 -62 -15 -189 190 0
14 -62 -15 -189 -190 0
-14 62 -15 191 192 0
-14 62 -15 191 -192 0
-14 62 -15 -191 192 0
-14 62 -15 -191 -192 0
15 63 16 193 194 0
15 63 16 193 -194 0
15 63 16 -193 194 0
15 63 16 -193 -194 0
-15 -63 16 195 196 0
-15 -63 16 195 -196 0
-15 -63 16 -195 196 0
-15 -63 16 -195 -196 0
15 -63 -16 197 198 0
15 -63 -16 197 -198 0
15 -63 -16 -197 198 0
15 -63 -16 -197 -198 0
-15 63 -16 199 200 0
-15 63 -16 199 -200 0
-15 63 -16 -199 200 0
-15 63 -16 -199 -200 0
16 64 17 201 202 0
16 64 17 201 -202 0
16 64 17 -201 202 0
16 64 17 -201 -202 0
-16 -64 17 203 204 0
-16 -64 17 203 -204 0
-16 -64 17 -203 204 0
-16 -64 17 -203 -204 0
16 -64 -17 205 206 0
16 -64 -17 205 -206 0
16 -64 -17 -205 206 0
16 -64 -17 -205 -206 0
-16 64 -17 207 208 0
-16 64 -17 207 -208 0
-16 64 -17 -207 208 0
-16 64 -17 -207 -208 0
17 65 18 209 210 0
17 65 18 209 -210 0
17 65 18 -209 210 0
17 65 18 -209 -210 0
-17 -65 18 211 212 0
-17 -65 18 211 -212 0
-17 -65 18 -211 212 0
-17 -65 18 -211 -212 0
17 -65 -18 213 214 0
17 -65 -18 213 -214 0
17 -65 -18 -213 214 0
17 -65 -18 -213 -214 0
-17 65 -18 215 216 0
-17 65 -18 215 -216 0
-17 65 -18 -215 216 0
-17 65 -18 -215 -216 0
18 66 19 217 218 0
18 66 19 217 -218 0
18 66 19 -217 218 0
18 66 19 -217 -218 0
-18 -66 19 219 220 0
-18 -66 19 219 -220 0
-18 -66 19 -219 220 0
-18 -66 19 -219 -220 0
18 -66 -19 221 222 0
18 -66 -19 221 -222 0
18 -66 -19 -221 222 0
18 -66 -19 -221 -222 0
-18 66 -19 223 224 0
-18 66 -19 223 -224 0
-18 66 -19 -223 224 0
-18 66 -19 -223 -224 0
19 67 20 225 226 0
19 67 20 225 -226 0
19 67 20 -225 226 0
19 67 20 -225 -226 0
-19 -67 20 227 228 0
-19 -67 20 227 -228 0
-19 -67 20 -227 228 0
-19 -67 20 -227 -228 0
19 -67 -20 229 230 0
19 -67 -20 229 -230 0
19 -67 -20 -229 230 0
19 -67 -20 -229 -230 0
-19 67 -20 231 232 0
-19 67 -20 231 -232 0
-19 67 -20 -231 232 0
-19 67 -20 -231 -232 0
20 68 21 233 234 0
20 68 21 233 -234 0
20 68 21 -233 234 0
20 68 21 -233 -234 0
-20 -68 21 235 236 0
-20 -68 21 235 -236 0
-20 -68 21 -235 236 0
-20 -68 21 -235 -236 0
20 -68 -21 237 238 0
20 -68 -21 237 -238 0
20 -68 -21 -237 238 0
20 -68 -21 -237 -238 0
-20 68 -21 239 240 0
-20 68 -21 239 -240 0
-20 68 -21 -239 240 0
-20 68 -21 -239 -240 0
21 69 22 241 242 0
21 69 22 241 -242 0
21 69 22 -241 242 0
21 69 22 -241 -242 0
-21 -69 22 243 244 0
-21 -69 22 243 -244 0
-21 -69 22 -243 244 0
-21 -69 22 -243 -244 0
21 -69 -22 245 246 0
21 -69 -22 245 -246 0
21 -69 -22 -245 246 0
21 -69 -22 -245 -246 0
-21 69 -22 247 248 0
-21 69 -22 247 -248 0
-21 69 -22 -247 248 0
-21 69 -22 -247 -248 0
22 70 23 249 250 0
22 70 23 249 -250 0
22 70 23 -249 250 0
22 70 23 -249 -250 0
-22 -70 23 251 252 0
-22 -70 23 251 -252 0
-22 -70 23 -251 252 0
-22 -70 23 -251 -252 0
22 -70 -23 253 254 0
22 -70 -23 253 -254 0
22 -70 -23 -253 254 0
22 -70 -23 -253 -254 0
-22 70 -23 255 256 0
-22 70 -23 255 -256 0
-22 70 -23 -255 256 0
-22 70 -23 -255 -256 0
23 71 72 257 258 0
23 71 72 257 -258 0
23 71 72 -257 258 0
23 71 72 -257 -258 0
-23 -71 72 259 260 0
-23 -71 72 259 -260 0
-23 -71 72 -259 260 0
-23 -71 72 -259 -260 0
23 -71 -72 261 262 0
23 -71 -72 261 -262 0
23 -71 -72 -261 262 0
23 -71 -72 -261 -262 0
-23 71 -72 263 264 0
-23 71 -72 263 -264 0
-23 71 -72 -263 264 0
-23 71 -72 -263 -264 0
24 71 72 265 266 0
24 71 72 265 -266 0
24 71 72 -265 266 0
24 71 72 -265 -266 0
-24 -71 72 267 268 0
-24 -71 72 267 -268 0
-24 -71 72 -267 268 0
-24 -71 72 -267 -268 0
24 -71 -72 269 270 0
24 -71 -72 269 -270 0
24 -71 -72 -269 270 0
24 -71 -72 -269 -270 0
-24 71 -72 271 272 0
-24 71 -72 271 -272 0
-24 71 -72 -271 272 0
-24 71 -72 -271 -272 0
25 70 24 273 274 0
25 70 24 273 -274 0
25 70 24 -273 274 0
25 70 24 -273 -274 0
-25 -70 24 275 276 0
-25 -70 24 275 -276 0
-25 -70 24 -275 276 0
-25 -70 24 -275 -276 0
25 -70 -24 277 278 0
25 -70 -24 277 -278 0
25 -70 -24 -277 278 0
25 -70 -24 -277 -278 0
-25 70 -24 279 280 0
-25 70 -24 279 -280 0
-25 70 -24 -279 280 0
-25 70 -24 -279 -280 0
26 69 25 281 282 0
26 69 25 281 -282 0
26 69 25 -281 282 0
26 69 25 -281 -282 0
-26 -69 25 283 284 0
-26 -69 25 283 -284 0
-26 -69 25 -283 284 0
-26 -69 25 -283 -284 0
26 -69 -25 285 286 0
26 -69 -25 285 -286 0
26 -69 -25 -285 286 0
26 -69 -25 -285 -286 0
-26 69 -25 287 288 0
-26 69 -25 287 -288 0
-26 69 -25 -287 288 0
-26 69 -25 -287 -288 0
27 68 26 289 290 0
27 68 26 289 -290 0
27 68 26 -289 290 0
27 68 26 -289 -290 0
-27 -68 26 291 292 0
-27 -68 26 291 -292 0
-27 -68 26 -291 292 0
-27 -68 26 -291 -292 0
27 -68 -26 293 294 0
27 -68 -26 293 -294 0
27 -68 -26 -293 294 0
27 -68 -26 -293 -294 0
-27 68 -26 295 296 0
-27 68 -26 295 -296 0
-27 68 -26 -295 296 0
-27 68 -26 -295 -296 0
28 67 27 297 298 0
28 67 27 297 -298 0
28 67 27 -297 298 0
28 67 27 -297 -298 0
-28 -67 27 299 300 0
-28 -67 27 299 -300 0
-28 -67 27 -299 300 0
-28 -67 27 -299 -300 0
28 -67 -27 301 302 0
28 -67 -27 301 -302 0
28 -67 -27 -301 302 0
28 -67 -27 -301 -302 0
-28 67 -27 303 304 0
-28 67 -27 303 -304 0
-28 67 -27 -303 304 0
-28 67 -27 -303 -304 0
29 66 28 305 306 0
29 66 28 305 -306 0
29 66 28 -305 306 0
29 66 28 -305 -306 0
-29 -66 28 307 308 0
-29 -66 28 307 -308 0
-29 -66 28 -307 308 0
-29 -66 28 -307 -308 0
29 -66 -28 309 310 0
29 -66 -28 309 -310 0
29 -66 -28 -309 310 0
29 -66 -28 -309 -310 0
-29 66 -28 311 312 0
-29 66 -28 311 -312 0
-29 66 -28 -311 312 0
-29 66 -28 -311 -312 0
30 65 29 313 314 0
30 65 29 313 -314 0
30 65 29 -313 314 0
30 65 29 -313 -314 0
-30 -65 29 315 316 0
-30 -65 29 315 -316 0
-30 -65 29 -315 316 0
-30 -65 29 -315 -316 0
30 -65 -29 317 318 0
30 -65 -29 317 -318 0
30 -65 -29 -317 318 0
30 -65 -29 -317 -318 0
-30 65 -29 319 320 0
-30 65 -29 319 -320 0
-30 65 -29 -319 320 0
-30 65 -29 -319 -320 0
31 64 30 321 322 0
31 64 30 321 -322 0
31 64 30 -321 322 0
31 64 30 -321 -322 0
-31 -64 30 323 324 0
-31 -64 30 323 -324 0
-31 -64 30 -323 324 0
-31 -64 30 -323 -324 0
31 -64 -30 325 326 0
31 -64 -30 325 -326 0
31 -64 -30 -325 326 0
31 -64 -30 -325 -326 0
-31 64 -30 327 328 0
-31 64 -30 327 -328 0
-31 64 -30 -327 328 0
-31 64 -30 -327 -328 0
32 63 31 329 330 0
32 63 31 329 -330 0
32 63 31 -329 330 0
32 63 31 -329 -330 0
-32 -63 31 331 332 0
-32 -63 31 331 -332 0
-32 -63 31 -331 332 0
-32 -63 31 -331 -332 0
32 -63 -31 333 334 0
32 -63 -31 333 -334 0
32 -63 -31 -333 334 0
32 -63 -31 -333 -334 0
-32 63 -31 335 336 0
-32 63 -31 335 -336 0
-32 63 -31 -335 336 0
-32 63 -31 -335 -336 0
33 62 32 337 338 0
33 62 32 337 -338 0
33 62 32 -337 338 0
33 62 32 -337 -338 0
-33 -62 32 339 340 0
-33 -62 32 339 -340 0
-33 -62 32 -339 340 0
-33 -62 32 -339 -340 0
33 -62 -32 341 342 0
33 -62 -32 341 -342 0
33 -62 -32 -341 342 0
33 -62 -32 -341 -342 0
-33 62 -32 343 344 0
-33 62 -32 343 -344 0
-33 62 -32 -343 344 0
-33 62 -32 -343 -344 0
34 61 33 345 346 0
34 61 33 345 -346 0
34 61 33 -345 346 0
34 61 33 -345 -346 0
-34 -61 33 347 348 0
-34 -61 33 347 -348 0
-34 -61 33 -347 348 0
-34 -61 33 -347 -348 0
34 -61 -33 349 350 0
34 -61 -33 349 -350 0
34 -61 -33 -349 350 0
34 -61 -33 -349 -350 0
-34 61 -33 351 352 0
-34 61 -33 351 -352 0
-34 61 -33 -351 352 0
-34 61 -33 -351 -352 0
35 60 34 353 354 0
35 60 34 353 -354 0
35 60 34 -353 354 0
35 60 34 -353 -354 0
-35 -60 34 355 356 0
-35 -60 34 355 -356 0
-35 -60 34 -355 356 0
-35 -60 34 -355 -356 0
35 -60 -34 357 358 0
35 -60 -34 357 -358 0
35 -60 -34 -357 358 0
35 -60 -34 -357 -358 0
-35 60 -34 359 360 0
-35 60 -34 359 -360 0
-35 60 -34 -359 360 0
-35 60 -34 -359 -360 0
36 59 35 361 362 0
36 59 35 361 -362 0
36 59 35 -361 362 0
36 59 35 -361 -362 0
-36 -59 35 363 364 0
-36 -59 35 363 -364 0
-36 -59 35 -363 364 0
-36 -59 35 -363 -364 0
36 -59 -35 365 366 0
36 -59 -35 365 -366 0
36 -59 -35 -365 366 0
36 -59 -35 -365 -366 0
-36 59 -35 367 368 0
-36 59 -35 367 -368 0
-36 59 -35 -367 368 0
-36 59 -35 -367 -368 0
37 58 36 369 370 0
37 58 36 369 -370 0
37 58 36 -369 370 0
37 58 36 -369 -370 0
-37 -58 36 371 372 0
-37 -58 36 371 -372 0
-37 -58 36 -371 372 0
-37 -58 36 -371 -372 0
37 -58 -36 373 374 0
37 -58 -36 373 -374 0
37 -58 -36 -373 374 0
37 -58 -36 -373 -374 0
-37 58 -36 375 376 0
-37 58 -36 375 -376 0
-37 58 -36 -375 376 0
-37 58 -36 -375 -376 0
38 57 37 377 378 0
38 57 37 377 -378 0
38 57 37 -377 378 0
38 57 37 -377 -378 0
-38 -57 37 379 380 0
-38 -57 37 379 -380 0
-38 -57 37 -379 380 0
-38 -57 37 -379 -380 0
38 -57 -37 381 382 0
38 -57 -37 381 -382 0
38 -57 -37 -381 382 0
38 -57 -37 -381 -382 0
-38 57 -37 383 384 0
-38 57 -37 383 -384 0
-38 57 -37 -383 384 0
-38 57 -37 -383 -384 0
39 56 38 385 386 0
39 56 38 385 -386 0
39 56 38 -385 386 0
39 56 38 -385 -386 0
-39 -56 38 387 388 0
-39 -56 38 387 -388 0
-39 -56 38 -387 388 0
-39 -56 38 -387 -388 0
39 -56 -38 389 390 0
39 -56 -38 389 -390 0
39 -56 -38 -389 390 0
39 -56 -38 -389 -390 0
-39 56 -38 391 392 0
-39 56 -38 391 -392 0
-39 56 -38 -391 392 0
-39 56 -38 -391 -392 0
40 55 39 393 394 0
40 55 39 393 -394 0
40 55 39 -393 394 0
40 55 39 -393 -394 0
-40 -55 39 395 396 0
-40 -55 39 395 -396 0
-40 -55 39 -395 396 0
-40 -55 39 -395 -396 0
40 -55 -39 397 398 0
40 -55 -39 397 -398 0
40 -55 -39 -397 398 0
40 -55 -39 -397 -398 0
-40 55 -39 399 400 0
-40 55 -39 399 -400 0
-40 55 -39 -399 400 0
-40 55 -39 -399 -400 0
41 54 40 401 402 0
41 54 40 401 -402 0
41 54 40 -401 402 0
41 54 40 -401 -402 0
-41 -54 40 403 404 0
-41 -54 40 403 -404 0
-41 -54 40 -403 404 0
-41 -54 40 -403 -404 0
41 -54 -40 405 406 0
41 -54 -40 405 -406 0
41 -54 -40 -405 406 0
41 -54 -40 -405 -406 0
-41 54 -40 407 408 0
-41 54 -40 407 -408 0
-41 54 -40 -407 408 0
-41 54 -40 -407 -408 0
42 53 41 409 410 0
42 53 41 409 -410 0
42 53 41 -409 410 0
42 53 41 -409 -410 0
-42 -53 41 411 412 0
-42 -53 41 411 -412 0
-42 -53 41 -411 412 0
-42 -53 41 -411 -412 0
42 -53 -41 413 414 0
42 -53 -41 413 -414 0
42 -53 -41 -413 414 0
42 -53 -41 -413 -414 0
-42 53 -41 415 416 0
-42 53 -41 415 -416 0
-42 53 -41 -415 416 0
-42 53 -41 -415 -416 0
43 52 42 417 418 0
43 52 42 417 -418 0
43 52 42 -417 418 0
43 52 42 -417 -418 0
-43 -52 42 419 420 0
-43 -52 42 419 -420 0
-43 -52 42 -419 420 0
-43 -52 42 -419 -420 0
43 -52 -42 421 422 0
43 -52 -42 421 -422 0
43 -52 -42 -421 422 0
43 -52 -42 -421 -422 0
-43 52 -42 423 424 0
-43 52 -42 423 -424 0
-43 52 -42 -423 424 0
-43 52 -42 -423 -424 0
44 51 43 425 426 0
44 51 43 425 -426 0
44 51 43 -425 426 0
44 51 43 -425 -426 0
-44 -51 43 427 428 0
-44 -51 43 427 -428 0
-44 -51 43 -427 428 0
-44 -51 43 -427 -428 0
44 -51 -43 429 430 0
44 -51 -43 429 -430 0
44 -51 -43 -429 430 0
44 -51 -43 -429 -430 0
-44 51 -43 431 432 0
-44 51 -43 431 -432 0
-44 51 -43 -431 432 0
-44 51 -43 -431 -432 0
45 50 44 433 434 0
45 50 44 433 -434 0
45 50 44 -433 434 0
45 50 44 -433 -434 0
-45 -50 44 435 436 0
-45 -50 44 435 -436 0
-45 -50 44 -435 436 0
-45 -50 44 -435 -436 0
45 -50 -44 437 438 0
45 -50 -44 437 -438 0
45 -50 -44 -437 438 0
45 -50 -44 -437 -438 0
-45 50 -44 439 440 0
-45 50 -44 439 -440 0
-45 50 -44 -439 440 0
-45 50 -44 -439 -440 0
46 49 45 441 442 0
46 49 45 441 -442 0
46 49 45 -441 442 0
46 49 45 -441 -442 0
-46 -49 45 443 444 0
-46 -49 45 443 -444 0
-46 -49 45 -443 444 0
-46 -49 45 -443 -444 0
46 -49 -45 445 446 0
46 -49 -45 445 -446 0
46 -49 -45 -445 446 0
46 -49 -45 -445 -446 0
-46 49 -45 447 448 0
-46 49 -45 447 -448 0
-46 49 -45 -447 448 0
-46 49 -45 -447 -448 0
47 48 -46 449 450 0
47 48 -46 449 -450 0
47 48 -46 -449 450 0
47 48 -46 -449 -450 0
-47 -48 -46 451 452 0
-47 -48 -46 451 -452 0
-47 -48 -46 -451 452 0
-47 -48 -46 -451 -452 0
47 -48 46 453 454 0
47 -48 46 453 -454 0
47 -48 46 -453 454 0
47 -48 46 -453 -454 0
-47 48 46 455 456 0
-47 48 46 455 -456 0
-47 48 46 -455 456 0
-47 48 46 -455 -456 0
